100 22186800
48 13 7 76 78 42 74 59 46 31 8 97 47 65 63 75 3 50 28 35 9 71 41 98 73 89 4 67 24 68 27 80 2 88 82 84 51 34 16 23 92 39 36 22 60 72 90 11 56 1 26 52 29 53 86 57 40 79 21 91 62 95 44 49 19 66 38 100 81 55 32 54 12 99 17 15 70 25 30 61 85 5 83 58 10 43 6 87 18 20 45 93 96 64 37 14 69 77 94 33 
